12      4       
13      7       17      14      
0       0       0       0       0       3       2       3       4       
9       0       0       9       8       3       5       6       8       
1       1       0       6       0       2       6       7       
5       9       0       9       6       1       8       
4       6       0       0       0       2       7       10      
6       5       0       0       6       1       11      
6       0       7       0       10      2       9       11      
3       5       0       0       7       1       9       
10      0       6       6       10      1       12      
5       0       0       8       0       1       12      
9       0       0       2       8       1       12      
0       0       0       0       0       0       